
Gurobi 12.0.2 (win64) logging started Sat Nov  1 19:31:37 2025

Set parameter LogFile to value "resultados DATA_1_n30m05b2d1\instancia_9_log.txt"
Set parameter TimeLimit to value 360
Gurobi Optimizer version 12.0.2 build v12.0.2rc0 (win64 - Windows 10.0 (19045.2))

CPU model: Intel(R) Core(TM) i5-6300U CPU @ 2.40GHz, instruction set [SSE2|AVX|AVX2]
Thread count: 2 physical cores, 4 logical processors, using up to 4 threads

Non-default parameters:
TimeLimit  360

Optimize a model with 4955 rows, 12764 columns and 1953368 nonzeros
Model fingerprint: 0x208806b2
Variable types: 0 continuous, 12764 integer (12764 binary)
Coefficient statistics:
  Matrix range     [1e+00, 1e+00]
  Objective range  [6e-03, 6e-02]
  Bounds range     [1e+00, 1e+00]
  RHS range        [1e+00, 2e+01]
Found heuristic solution: objective 0.8894815
Presolve removed 151 rows and 4612 columns (presolve time = 5s)...
Presolve removed 151 rows and 4612 columns (presolve time = 10s)...
Presolve removed 151 rows and 4612 columns
Presolve time: 14.56s
Presolved: 4804 rows, 8152 columns, 1144923 nonzeros
Found heuristic solution: objective 0.6783704
Variable types: 0 continuous, 8152 integer (8152 binary)
Found heuristic solution: objective 0.9005926

Root simplex log...

Iteration    Objective       Primal Inf.    Dual Inf.      Time
       0    4.0836000e+01   3.058440e+05   0.000000e+00     15s
     366    1.5647621e+00   6.713423e+03   0.000000e+00     15s
    5927    1.0325967e+00   7.878455e+03   0.000000e+00     20s
    9257    1.0068261e+00   1.269417e+04   0.000000e+00     25s
   11837    9.9623931e-01   2.354578e+04   0.000000e+00     30s
   14217    9.8924127e-01   2.899121e+03   0.000000e+00     35s
   16557    9.8451468e-01   3.042141e+03   0.000000e+00     40s
   18677    9.8102211e-01   1.567984e+04   0.000000e+00     45s
   20787    9.7846271e-01   1.477947e+04   0.000000e+00     50s
   22917    9.7684208e-01   1.756270e+03   0.000000e+00     55s
   25057    9.7550897e-01   1.128641e+03   0.000000e+00     60s
   27317    9.7446975e-01   1.829126e+03   0.000000e+00     65s
   29557    9.7376489e-01   3.507229e+03   0.000000e+00     70s
   31617    9.7324155e-01   9.189247e+02   0.000000e+00     75s
   33607    9.7292613e-01   7.986388e+02   0.000000e+00     80s
   35817    9.7270903e-01   2.478858e+02   0.000000e+00     85s
   38107    9.7252560e-01   2.151112e+02   0.000000e+00     90s
   40397    9.7241367e-01   5.241963e+02   0.000000e+00     95s
   42677    9.7237013e-01   9.383266e+00   0.000000e+00    100s
   44074    9.7281483e-01   0.000000e+00   4.015693e-03    105s
   44491    9.7281481e-01   0.000000e+00   0.000000e+00    107s

Root relaxation: objective 9.728148e-01, 44491 iterations, 92.09 seconds (123.33 work units)

    Nodes    |    Current Node    |     Objective Bounds      |     Work
 Expl Unexpl |  Obj  Depth IntInf | Incumbent    BestBd   Gap | It/Node Time

     0     0    0.97281    0  179    0.90059    0.97281  8.02%     -  108s
H    0     0                       0.9043704    0.97281  7.57%     -  108s
H    0     0                       0.9270370    0.97281  4.94%     -  108s
H    0     0                       0.9367407    0.97281  3.85%     -  108s
H    0     0                       0.9380741    0.97281  3.70%     -  108s
H    0     0                       0.9388148    0.97281  3.62%     -  108s
H    0     0                       0.9422963    0.97281  3.24%     -  108s
H    0     0                       0.9450370    0.97281  2.94%     -  108s
H    0     0                       0.9471111    0.97281  2.71%     -  108s
     0     0    0.97281    0  301    0.94711    0.97281  2.71%     -  131s
H    0     0                       0.9511111    0.97281  2.28%     -  132s
H    0     0                       0.9511111    0.97281  2.28%     -  139s
     0     0    0.97281    0  189    0.95111    0.97281  2.28%     -  179s
     0     0    0.97281    0  207    0.95111    0.97281  2.28%     -  213s
     0     0    0.97281    0  189    0.95111    0.97281  2.28%     -  270s
H    0     0                       0.9550370    0.97281  1.86%     -  279s
     0     0    0.97281    0  219    0.95504    0.97281  1.86%     -  360s

Cutting planes:
  Zero half: 34

Explored 1 nodes (89516 simplex iterations) in 360.11 seconds (470.65 work units)
Thread count was 4 (of 4 available processors)

Solution count 10: 0.955037 0.951111 0.951111 ... 0.927037

Time limit reached
Best objective 9.550370370370e-01, best bound 9.728148148148e-01, gap 1.8615%
